c created by edge2cnf
p cnf 500 3100
-1 -2 0
-1 -3 0
-1 -4 0
-1 -5 0
-2 -3 0
-2 -4 0
-2 -5 0
-3 -4 0
-3 -5 0
-4 -5 0
1 2 3 4 5 0
-6 -7 0
-6 -8 0
-6 -9 0
-6 -10 0
-7 -8 0
-7 -9 0
-7 -10 0
-8 -9 0
-8 -10 0
-9 -10 0
6 7 8 9 10 0
-11 -12 0
-11 -13 0
-11 -14 0
-11 -15 0
-12 -13 0
-12 -14 0
-12 -15 0
-13 -14 0
-13 -15 0
-14 -15 0
11 12 13 14 15 0
-16 -17 0
-16 -18 0
-16 -19 0
-16 -20 0
-17 -18 0
-17 -19 0
-17 -20 0
-18 -19 0
-18 -20 0
-19 -20 0
16 17 18 19 20 0
-21 -22 0
-21 -23 0
-21 -24 0
-21 -25 0
-22 -23 0
-22 -24 0
-22 -25 0
-23 -24 0
-23 -25 0
-24 -25 0
21 22 23 24 25 0
-26 -27 0
-26 -28 0
-26 -29 0
-26 -30 0
-27 -28 0
-27 -29 0
-27 -30 0
-28 -29 0
-28 -30 0
-29 -30 0
26 27 28 29 30 0
-31 -32 0
-31 -33 0
-31 -34 0
-31 -35 0
-32 -33 0
-32 -34 0
-32 -35 0
-33 -34 0
-33 -35 0
-34 -35 0
31 32 33 34 35 0
-36 -37 0
-36 -38 0
-36 -39 0
-36 -40 0
-37 -38 0
-37 -39 0
-37 -40 0
-38 -39 0
-38 -40 0
-39 -40 0
36 37 38 39 40 0
-41 -42 0
-41 -43 0
-41 -44 0
-41 -45 0
-42 -43 0
-42 -44 0
-42 -45 0
-43 -44 0
-43 -45 0
-44 -45 0
41 42 43 44 45 0
-46 -47 0
-46 -48 0
-46 -49 0
-46 -50 0
-47 -48 0
-47 -49 0
-47 -50 0
-48 -49 0
-48 -50 0
-49 -50 0
46 47 48 49 50 0
-51 -52 0
-51 -53 0
-51 -54 0
-51 -55 0
-52 -53 0
-52 -54 0
-52 -55 0
-53 -54 0
-53 -55 0
-54 -55 0
51 52 53 54 55 0
-56 -57 0
-56 -58 0
-56 -59 0
-56 -60 0
-57 -58 0
-57 -59 0
-57 -60 0
-58 -59 0
-58 -60 0
-59 -60 0
56 57 58 59 60 0
-61 -62 0
-61 -63 0
-61 -64 0
-61 -65 0
-62 -63 0
-62 -64 0
-62 -65 0
-63 -64 0
-63 -65 0
-64 -65 0
61 62 63 64 65 0
-66 -67 0
-66 -68 0
-66 -69 0
-66 -70 0
-67 -68 0
-67 -69 0
-67 -70 0
-68 -69 0
-68 -70 0
-69 -70 0
66 67 68 69 70 0
-71 -72 0
-71 -73 0
-71 -74 0
-71 -75 0
-72 -73 0
-72 -74 0
-72 -75 0
-73 -74 0
-73 -75 0
-74 -75 0
71 72 73 74 75 0
-76 -77 0
-76 -78 0
-76 -79 0
-76 -80 0
-77 -78 0
-77 -79 0
-77 -80 0
-78 -79 0
-78 -80 0
-79 -80 0
76 77 78 79 80 0
-81 -82 0
-81 -83 0
-81 -84 0
-81 -85 0
-82 -83 0
-82 -84 0
-82 -85 0
-83 -84 0
-83 -85 0
-84 -85 0
81 82 83 84 85 0
-86 -87 0
-86 -88 0
-86 -89 0
-86 -90 0
-87 -88 0
-87 -89 0
-87 -90 0
-88 -89 0
-88 -90 0
-89 -90 0
86 87 88 89 90 0
-91 -92 0
-91 -93 0
-91 -94 0
-91 -95 0
-92 -93 0
-92 -94 0
-92 -95 0
-93 -94 0
-93 -95 0
-94 -95 0
91 92 93 94 95 0
-96 -97 0
-96 -98 0
-96 -99 0
-96 -100 0
-97 -98 0
-97 -99 0
-97 -100 0
-98 -99 0
-98 -100 0
-99 -100 0
96 97 98 99 100 0
-101 -102 0
-101 -103 0
-101 -104 0
-101 -105 0
-102 -103 0
-102 -104 0
-102 -105 0
-103 -104 0
-103 -105 0
-104 -105 0
101 102 103 104 105 0
-106 -107 0
-106 -108 0
-106 -109 0
-106 -110 0
-107 -108 0
-107 -109 0
-107 -110 0
-108 -109 0
-108 -110 0
-109 -110 0
106 107 108 109 110 0
-111 -112 0
-111 -113 0
-111 -114 0
-111 -115 0
-112 -113 0
-112 -114 0
-112 -115 0
-113 -114 0
-113 -115 0
-114 -115 0
111 112 113 114 115 0
-116 -117 0
-116 -118 0
-116 -119 0
-116 -120 0
-117 -118 0
-117 -119 0
-117 -120 0
-118 -119 0
-118 -120 0
-119 -120 0
116 117 118 119 120 0
-121 -122 0
-121 -123 0
-121 -124 0
-121 -125 0
-122 -123 0
-122 -124 0
-122 -125 0
-123 -124 0
-123 -125 0
-124 -125 0
121 122 123 124 125 0
-126 -127 0
-126 -128 0
-126 -129 0
-126 -130 0
-127 -128 0
-127 -129 0
-127 -130 0
-128 -129 0
-128 -130 0
-129 -130 0
126 127 128 129 130 0
-131 -132 0
-131 -133 0
-131 -134 0
-131 -135 0
-132 -133 0
-132 -134 0
-132 -135 0
-133 -134 0
-133 -135 0
-134 -135 0
131 132 133 134 135 0
-136 -137 0
-136 -138 0
-136 -139 0
-136 -140 0
-137 -138 0
-137 -139 0
-137 -140 0
-138 -139 0
-138 -140 0
-139 -140 0
136 137 138 139 140 0
-141 -142 0
-141 -143 0
-141 -144 0
-141 -145 0
-142 -143 0
-142 -144 0
-142 -145 0
-143 -144 0
-143 -145 0
-144 -145 0
141 142 143 144 145 0
-146 -147 0
-146 -148 0
-146 -149 0
-146 -150 0
-147 -148 0
-147 -149 0
-147 -150 0
-148 -149 0
-148 -150 0
-149 -150 0
146 147 148 149 150 0
-151 -152 0
-151 -153 0
-151 -154 0
-151 -155 0
-152 -153 0
-152 -154 0
-152 -155 0
-153 -154 0
-153 -155 0
-154 -155 0
151 152 153 154 155 0
-156 -157 0
-156 -158 0
-156 -159 0
-156 -160 0
-157 -158 0
-157 -159 0
-157 -160 0
-158 -159 0
-158 -160 0
-159 -160 0
156 157 158 159 160 0
-161 -162 0
-161 -163 0
-161 -164 0
-161 -165 0
-162 -163 0
-162 -164 0
-162 -165 0
-163 -164 0
-163 -165 0
-164 -165 0
161 162 163 164 165 0
-166 -167 0
-166 -168 0
-166 -169 0
-166 -170 0
-167 -168 0
-167 -169 0
-167 -170 0
-168 -169 0
-168 -170 0
-169 -170 0
166 167 168 169 170 0
-171 -172 0
-171 -173 0
-171 -174 0
-171 -175 0
-172 -173 0
-172 -174 0
-172 -175 0
-173 -174 0
-173 -175 0
-174 -175 0
171 172 173 174 175 0
-176 -177 0
-176 -178 0
-176 -179 0
-176 -180 0
-177 -178 0
-177 -179 0
-177 -180 0
-178 -179 0
-178 -180 0
-179 -180 0
176 177 178 179 180 0
-181 -182 0
-181 -183 0
-181 -184 0
-181 -185 0
-182 -183 0
-182 -184 0
-182 -185 0
-183 -184 0
-183 -185 0
-184 -185 0
181 182 183 184 185 0
-186 -187 0
-186 -188 0
-186 -189 0
-186 -190 0
-187 -188 0
-187 -189 0
-187 -190 0
-188 -189 0
-188 -190 0
-189 -190 0
186 187 188 189 190 0
-191 -192 0
-191 -193 0
-191 -194 0
-191 -195 0
-192 -193 0
-192 -194 0
-192 -195 0
-193 -194 0
-193 -195 0
-194 -195 0
191 192 193 194 195 0
-196 -197 0
-196 -198 0
-196 -199 0
-196 -200 0
-197 -198 0
-197 -199 0
-197 -200 0
-198 -199 0
-198 -200 0
-199 -200 0
196 197 198 199 200 0
-201 -202 0
-201 -203 0
-201 -204 0
-201 -205 0
-202 -203 0
-202 -204 0
-202 -205 0
-203 -204 0
-203 -205 0
-204 -205 0
201 202 203 204 205 0
-206 -207 0
-206 -208 0
-206 -209 0
-206 -210 0
-207 -208 0
-207 -209 0
-207 -210 0
-208 -209 0
-208 -210 0
-209 -210 0
206 207 208 209 210 0
-211 -212 0
-211 -213 0
-211 -214 0
-211 -215 0
-212 -213 0
-212 -214 0
-212 -215 0
-213 -214 0
-213 -215 0
-214 -215 0
211 212 213 214 215 0
-216 -217 0
-216 -218 0
-216 -219 0
-216 -220 0
-217 -218 0
-217 -219 0
-217 -220 0
-218 -219 0
-218 -220 0
-219 -220 0
216 217 218 219 220 0
-221 -222 0
-221 -223 0
-221 -224 0
-221 -225 0
-222 -223 0
-222 -224 0
-222 -225 0
-223 -224 0
-223 -225 0
-224 -225 0
221 222 223 224 225 0
-226 -227 0
-226 -228 0
-226 -229 0
-226 -230 0
-227 -228 0
-227 -229 0
-227 -230 0
-228 -229 0
-228 -230 0
-229 -230 0
226 227 228 229 230 0
-231 -232 0
-231 -233 0
-231 -234 0
-231 -235 0
-232 -233 0
-232 -234 0
-232 -235 0
-233 -234 0
-233 -235 0
-234 -235 0
231 232 233 234 235 0
-236 -237 0
-236 -238 0
-236 -239 0
-236 -240 0
-237 -238 0
-237 -239 0
-237 -240 0
-238 -239 0
-238 -240 0
-239 -240 0
236 237 238 239 240 0
-241 -242 0
-241 -243 0
-241 -244 0
-241 -245 0
-242 -243 0
-242 -244 0
-242 -245 0
-243 -244 0
-243 -245 0
-244 -245 0
241 242 243 244 245 0
-246 -247 0
-246 -248 0
-246 -249 0
-246 -250 0
-247 -248 0
-247 -249 0
-247 -250 0
-248 -249 0
-248 -250 0
-249 -250 0
246 247 248 249 250 0
-251 -252 0
-251 -253 0
-251 -254 0
-251 -255 0
-252 -253 0
-252 -254 0
-252 -255 0
-253 -254 0
-253 -255 0
-254 -255 0
251 252 253 254 255 0
-256 -257 0
-256 -258 0
-256 -259 0
-256 -260 0
-257 -258 0
-257 -259 0
-257 -260 0
-258 -259 0
-258 -260 0
-259 -260 0
256 257 258 259 260 0
-261 -262 0
-261 -263 0
-261 -264 0
-261 -265 0
-262 -263 0
-262 -264 0
-262 -265 0
-263 -264 0
-263 -265 0
-264 -265 0
261 262 263 264 265 0
-266 -267 0
-266 -268 0
-266 -269 0
-266 -270 0
-267 -268 0
-267 -269 0
-267 -270 0
-268 -269 0
-268 -270 0
-269 -270 0
266 267 268 269 270 0
-271 -272 0
-271 -273 0
-271 -274 0
-271 -275 0
-272 -273 0
-272 -274 0
-272 -275 0
-273 -274 0
-273 -275 0
-274 -275 0
271 272 273 274 275 0
-276 -277 0
-276 -278 0
-276 -279 0
-276 -280 0
-277 -278 0
-277 -279 0
-277 -280 0
-278 -279 0
-278 -280 0
-279 -280 0
276 277 278 279 280 0
-281 -282 0
-281 -283 0
-281 -284 0
-281 -285 0
-282 -283 0
-282 -284 0
-282 -285 0
-283 -284 0
-283 -285 0
-284 -285 0
281 282 283 284 285 0
-286 -287 0
-286 -288 0
-286 -289 0
-286 -290 0
-287 -288 0
-287 -289 0
-287 -290 0
-288 -289 0
-288 -290 0
-289 -290 0
286 287 288 289 290 0
-291 -292 0
-291 -293 0
-291 -294 0
-291 -295 0
-292 -293 0
-292 -294 0
-292 -295 0
-293 -294 0
-293 -295 0
-294 -295 0
291 292 293 294 295 0
-296 -297 0
-296 -298 0
-296 -299 0
-296 -300 0
-297 -298 0
-297 -299 0
-297 -300 0
-298 -299 0
-298 -300 0
-299 -300 0
296 297 298 299 300 0
-301 -302 0
-301 -303 0
-301 -304 0
-301 -305 0
-302 -303 0
-302 -304 0
-302 -305 0
-303 -304 0
-303 -305 0
-304 -305 0
301 302 303 304 305 0
-306 -307 0
-306 -308 0
-306 -309 0
-306 -310 0
-307 -308 0
-307 -309 0
-307 -310 0
-308 -309 0
-308 -310 0
-309 -310 0
306 307 308 309 310 0
-311 -312 0
-311 -313 0
-311 -314 0
-311 -315 0
-312 -313 0
-312 -314 0
-312 -315 0
-313 -314 0
-313 -315 0
-314 -315 0
311 312 313 314 315 0
-316 -317 0
-316 -318 0
-316 -319 0
-316 -320 0
-317 -318 0
-317 -319 0
-317 -320 0
-318 -319 0
-318 -320 0
-319 -320 0
316 317 318 319 320 0
-321 -322 0
-321 -323 0
-321 -324 0
-321 -325 0
-322 -323 0
-322 -324 0
-322 -325 0
-323 -324 0
-323 -325 0
-324 -325 0
321 322 323 324 325 0
-326 -327 0
-326 -328 0
-326 -329 0
-326 -330 0
-327 -328 0
-327 -329 0
-327 -330 0
-328 -329 0
-328 -330 0
-329 -330 0
326 327 328 329 330 0
-331 -332 0
-331 -333 0
-331 -334 0
-331 -335 0
-332 -333 0
-332 -334 0
-332 -335 0
-333 -334 0
-333 -335 0
-334 -335 0
331 332 333 334 335 0
-336 -337 0
-336 -338 0
-336 -339 0
-336 -340 0
-337 -338 0
-337 -339 0
-337 -340 0
-338 -339 0
-338 -340 0
-339 -340 0
336 337 338 339 340 0
-341 -342 0
-341 -343 0
-341 -344 0
-341 -345 0
-342 -343 0
-342 -344 0
-342 -345 0
-343 -344 0
-343 -345 0
-344 -345 0
341 342 343 344 345 0
-346 -347 0
-346 -348 0
-346 -349 0
-346 -350 0
-347 -348 0
-347 -349 0
-347 -350 0
-348 -349 0
-348 -350 0
-349 -350 0
346 347 348 349 350 0
-351 -352 0
-351 -353 0
-351 -354 0
-351 -355 0
-352 -353 0
-352 -354 0
-352 -355 0
-353 -354 0
-353 -355 0
-354 -355 0
351 352 353 354 355 0
-356 -357 0
-356 -358 0
-356 -359 0
-356 -360 0
-357 -358 0
-357 -359 0
-357 -360 0
-358 -359 0
-358 -360 0
-359 -360 0
356 357 358 359 360 0
-361 -362 0
-361 -363 0
-361 -364 0
-361 -365 0
-362 -363 0
-362 -364 0
-362 -365 0
-363 -364 0
-363 -365 0
-364 -365 0
361 362 363 364 365 0
-366 -367 0
-366 -368 0
-366 -369 0
-366 -370 0
-367 -368 0
-367 -369 0
-367 -370 0
-368 -369 0
-368 -370 0
-369 -370 0
366 367 368 369 370 0
-371 -372 0
-371 -373 0
-371 -374 0
-371 -375 0
-372 -373 0
-372 -374 0
-372 -375 0
-373 -374 0
-373 -375 0
-374 -375 0
371 372 373 374 375 0
-376 -377 0
-376 -378 0
-376 -379 0
-376 -380 0
-377 -378 0
-377 -379 0
-377 -380 0
-378 -379 0
-378 -380 0
-379 -380 0
376 377 378 379 380 0
-381 -382 0
-381 -383 0
-381 -384 0
-381 -385 0
-382 -383 0
-382 -384 0
-382 -385 0
-383 -384 0
-383 -385 0
-384 -385 0
381 382 383 384 385 0
-386 -387 0
-386 -388 0
-386 -389 0
-386 -390 0
-387 -388 0
-387 -389 0
-387 -390 0
-388 -389 0
-388 -390 0
-389 -390 0
386 387 388 389 390 0
-391 -392 0
-391 -393 0
-391 -394 0
-391 -395 0
-392 -393 0
-392 -394 0
-392 -395 0
-393 -394 0
-393 -395 0
-394 -395 0
391 392 393 394 395 0
-396 -397 0
-396 -398 0
-396 -399 0
-396 -400 0
-397 -398 0
-397 -399 0
-397 -400 0
-398 -399 0
-398 -400 0
-399 -400 0
396 397 398 399 400 0
-401 -402 0
-401 -403 0
-401 -404 0
-401 -405 0
-402 -403 0
-402 -404 0
-402 -405 0
-403 -404 0
-403 -405 0
-404 -405 0
401 402 403 404 405 0
-406 -407 0
-406 -408 0
-406 -409 0
-406 -410 0
-407 -408 0
-407 -409 0
-407 -410 0
-408 -409 0
-408 -410 0
-409 -410 0
406 407 408 409 410 0
-411 -412 0
-411 -413 0
-411 -414 0
-411 -415 0
-412 -413 0
-412 -414 0
-412 -415 0
-413 -414 0
-413 -415 0
-414 -415 0
411 412 413 414 415 0
-416 -417 0
-416 -418 0
-416 -419 0
-416 -420 0
-417 -418 0
-417 -419 0
-417 -420 0
-418 -419 0
-418 -420 0
-419 -420 0
416 417 418 419 420 0
-421 -422 0
-421 -423 0
-421 -424 0
-421 -425 0
-422 -423 0
-422 -424 0
-422 -425 0
-423 -424 0
-423 -425 0
-424 -425 0
421 422 423 424 425 0
-426 -427 0
-426 -428 0
-426 -429 0
-426 -430 0
-427 -428 0
-427 -429 0
-427 -430 0
-428 -429 0
-428 -430 0
-429 -430 0
426 427 428 429 430 0
-431 -432 0
-431 -433 0
-431 -434 0
-431 -435 0
-432 -433 0
-432 -434 0
-432 -435 0
-433 -434 0
-433 -435 0
-434 -435 0
431 432 433 434 435 0
-436 -437 0
-436 -438 0
-436 -439 0
-436 -440 0
-437 -438 0
-437 -439 0
-437 -440 0
-438 -439 0
-438 -440 0
-439 -440 0
436 437 438 439 440 0
-441 -442 0
-441 -443 0
-441 -444 0
-441 -445 0
-442 -443 0
-442 -444 0
-442 -445 0
-443 -444 0
-443 -445 0
-444 -445 0
441 442 443 444 445 0
-446 -447 0
-446 -448 0
-446 -449 0
-446 -450 0
-447 -448 0
-447 -449 0
-447 -450 0
-448 -449 0
-448 -450 0
-449 -450 0
446 447 448 449 450 0
-451 -452 0
-451 -453 0
-451 -454 0
-451 -455 0
-452 -453 0
-452 -454 0
-452 -455 0
-453 -454 0
-453 -455 0
-454 -455 0
451 452 453 454 455 0
-456 -457 0
-456 -458 0
-456 -459 0
-456 -460 0
-457 -458 0
-457 -459 0
-457 -460 0
-458 -459 0
-458 -460 0
-459 -460 0
456 457 458 459 460 0
-461 -462 0
-461 -463 0
-461 -464 0
-461 -465 0
-462 -463 0
-462 -464 0
-462 -465 0
-463 -464 0
-463 -465 0
-464 -465 0
461 462 463 464 465 0
-466 -467 0
-466 -468 0
-466 -469 0
-466 -470 0
-467 -468 0
-467 -469 0
-467 -470 0
-468 -469 0
-468 -470 0
-469 -470 0
466 467 468 469 470 0
-471 -472 0
-471 -473 0
-471 -474 0
-471 -475 0
-472 -473 0
-472 -474 0
-472 -475 0
-473 -474 0
-473 -475 0
-474 -475 0
471 472 473 474 475 0
-476 -477 0
-476 -478 0
-476 -479 0
-476 -480 0
-477 -478 0
-477 -479 0
-477 -480 0
-478 -479 0
-478 -480 0
-479 -480 0
476 477 478 479 480 0
-481 -482 0
-481 -483 0
-481 -484 0
-481 -485 0
-482 -483 0
-482 -484 0
-482 -485 0
-483 -484 0
-483 -485 0
-484 -485 0
481 482 483 484 485 0
-486 -487 0
-486 -488 0
-486 -489 0
-486 -490 0
-487 -488 0
-487 -489 0
-487 -490 0
-488 -489 0
-488 -490 0
-489 -490 0
486 487 488 489 490 0
-491 -492 0
-491 -493 0
-491 -494 0
-491 -495 0
-492 -493 0
-492 -494 0
-492 -495 0
-493 -494 0
-493 -495 0
-494 -495 0
491 492 493 494 495 0
-496 -497 0
-496 -498 0
-496 -499 0
-496 -500 0
-497 -498 0
-497 -499 0
-497 -500 0
-498 -499 0
-498 -500 0
-499 -500 0
496 497 498 499 500 0
-16 -31 0
-17 -32 0
-18 -33 0
-19 -34 0
-20 -35 0
-21 -41 0
-22 -42 0
-23 -43 0
-24 -44 0
-25 -45 0
-31 -36 0
-32 -37 0
-33 -38 0
-34 -39 0
-35 -40 0
-41 -56 0
-42 -57 0
-43 -58 0
-44 -59 0
-45 -60 0
-46 -56 0
-47 -57 0
-48 -58 0
-49 -59 0
-50 -60 0
-51 -56 0
-52 -57 0
-53 -58 0
-54 -59 0
-55 -60 0
-91 -111 0
-92 -112 0
-93 -113 0
-94 -114 0
-95 -115 0
-96 -101 0
-97 -102 0
-98 -103 0
-99 -104 0
-100 -105 0
-101 -116 0
-102 -117 0
-103 -118 0
-104 -119 0
-105 -120 0
-121 -141 0
-122 -142 0
-123 -143 0
-124 -144 0
-125 -145 0
-151 -156 0
-152 -157 0
-153 -158 0
-154 -159 0
-155 -160 0
-151 -161 0
-152 -162 0
-153 -163 0
-154 -164 0
-155 -165 0
-151 -171 0
-152 -172 0
-153 -173 0
-154 -174 0
-155 -175 0
-161 -166 0
-162 -167 0
-163 -168 0
-164 -169 0
-165 -170 0
-181 -201 0
-182 -202 0
-183 -203 0
-184 -204 0
-185 -205 0
-191 -211 0
-192 -212 0
-193 -213 0
-194 -214 0
-195 -215 0
-196 -206 0
-197 -207 0
-198 -208 0
-199 -209 0
-200 -210 0
-206 -211 0
-207 -212 0
-208 -213 0
-209 -214 0
-210 -215 0
-236 -256 0
-237 -257 0
-238 -258 0
-239 -259 0
-240 -260 0
-251 -266 0
-252 -267 0
-253 -268 0
-254 -269 0
-255 -270 0
-271 -276 0
-272 -277 0
-273 -278 0
-274 -279 0
-275 -280 0
-321 -326 0
-322 -327 0
-323 -328 0
-324 -329 0
-325 -330 0
-326 -331 0
-327 -332 0
-328 -333 0
-329 -334 0
-330 -335 0
-326 -336 0
-327 -337 0
-328 -338 0
-329 -339 0
-330 -340 0
-341 -356 0
-342 -357 0
-343 -358 0
-344 -359 0
-345 -360 0
-341 -361 0
-342 -362 0
-343 -363 0
-344 -364 0
-345 -365 0
-356 -366 0
-357 -367 0
-358 -368 0
-359 -369 0
-360 -370 0
-361 -381 0
-362 -382 0
-363 -383 0
-364 -384 0
-365 -385 0
-366 -386 0
-367 -387 0
-368 -388 0
-369 -389 0
-370 -390 0
-376 -386 0
-377 -387 0
-378 -388 0
-379 -389 0
-380 -390 0
-386 -406 0
-387 -407 0
-388 -408 0
-389 -409 0
-390 -410 0
-396 -411 0
-397 -412 0
-398 -413 0
-399 -414 0
-400 -415 0
-406 -426 0
-407 -427 0
-408 -428 0
-409 -429 0
-410 -430 0
-411 -416 0
-412 -417 0
-413 -418 0
-414 -419 0
-415 -420 0
-421 -441 0
-422 -442 0
-423 -443 0
-424 -444 0
-425 -445 0
-431 -436 0
-432 -437 0
-433 -438 0
-434 -439 0
-435 -440 0
-431 -441 0
-432 -442 0
-433 -443 0
-434 -444 0
-435 -445 0
-446 -466 0
-447 -467 0
-448 -468 0
-449 -469 0
-450 -470 0
-456 -461 0
-457 -462 0
-458 -463 0
-459 -464 0
-460 -465 0
-476 -491 0
-477 -492 0
-478 -493 0
-479 -494 0
-480 -495 0
-11 -496 0
-12 -497 0
-13 -498 0
-14 -499 0
-15 -500 0
-16 -496 0
-17 -497 0
-18 -498 0
-19 -499 0
-20 -500 0
-6 -496 0
-7 -497 0
-8 -498 0
-9 -499 0
-10 -500 0
-1 -496 0
-2 -497 0
-3 -498 0
-4 -499 0
-5 -500 0
-6 -491 0
-7 -492 0
-8 -493 0
-9 -494 0
-10 -495 0
-491 -496 0
-492 -497 0
-493 -498 0
-494 -499 0
-495 -500 0
-6 -486 0
-7 -487 0
-8 -488 0
-9 -489 0
-10 -490 0
-486 -496 0
-487 -497 0
-488 -498 0
-489 -499 0
-490 -500 0
-1 -481 0
-2 -482 0
-3 -483 0
-4 -484 0
-5 -485 0
-481 -491 0
-482 -492 0
-483 -493 0
-484 -494 0
-485 -495 0
-481 -486 0
-482 -487 0
-483 -488 0
-484 -489 0
-485 -490 0
-476 -481 0
-477 -482 0
-478 -483 0
-479 -484 0
-480 -485 0
-471 -481 0
-472 -482 0
-473 -483 0
-474 -484 0
-475 -485 0
-466 -486 0
-467 -487 0
-468 -488 0
-469 -489 0
-470 -490 0
-466 -476 0
-467 -477 0
-468 -478 0
-469 -479 0
-470 -480 0
-466 -471 0
-467 -472 0
-468 -473 0
-469 -474 0
-470 -475 0
-461 -476 0
-462 -477 0
-463 -478 0
-464 -479 0
-465 -480 0
-456 -476 0
-457 -477 0
-458 -478 0
-459 -479 0
-460 -480 0
-456 -471 0
-457 -472 0
-458 -473 0
-459 -474 0
-460 -475 0
-456 -466 0
-457 -467 0
-458 -468 0
-459 -469 0
-460 -470 0
-451 -471 0
-452 -472 0
-453 -473 0
-454 -474 0
-455 -475 0
-451 -466 0
-452 -467 0
-453 -468 0
-454 -469 0
-455 -470 0
-451 -461 0
-452 -462 0
-453 -463 0
-454 -464 0
-455 -465 0
-451 -456 0
-452 -457 0
-453 -458 0
-454 -459 0
-455 -460 0
-446 -461 0
-447 -462 0
-448 -463 0
-449 -464 0
-450 -465 0
-441 -446 0
-442 -447 0
-443 -448 0
-444 -449 0
-445 -450 0
-436 -456 0
-437 -457 0
-438 -458 0
-439 -459 0
-440 -460 0
-436 -451 0
-437 -452 0
-438 -453 0
-439 -454 0
-440 -455 0
-436 -446 0
-437 -447 0
-438 -448 0
-439 -449 0
-440 -450 0
-436 -441 0
-437 -442 0
-438 -443 0
-439 -444 0
-440 -445 0
-431 -446 0
-432 -447 0
-433 -448 0
-434 -449 0
-435 -450 0
-426 -446 0
-427 -447 0
-428 -448 0
-429 -449 0
-430 -450 0
-426 -441 0
-427 -442 0
-428 -443 0
-429 -444 0
-430 -445 0
-426 -436 0
-427 -437 0
-428 -438 0
-429 -439 0
-430 -440 0
-421 -436 0
-422 -437 0
-423 -438 0
-424 -439 0
-425 -440 0
-421 -431 0
-422 -432 0
-423 -433 0
-424 -434 0
-425 -435 0
-416 -426 0
-417 -427 0
-418 -428 0
-419 -429 0
-420 -430 0
-411 -431 0
-412 -432 0
-413 -433 0
-414 -434 0
-415 -435 0
-411 -421 0
-412 -422 0
-413 -423 0
-414 -424 0
-415 -425 0
-406 -421 0
-407 -422 0
-408 -423 0
-409 -424 0
-410 -425 0
-401 -421 0
-402 -422 0
-403 -423 0
-404 -424 0
-405 -425 0
-401 -416 0
-402 -417 0
-403 -418 0
-404 -419 0
-405 -420 0
-391 -406 0
-392 -407 0
-393 -408 0
-394 -409 0
-395 -410 0
-391 -396 0
-392 -397 0
-393 -398 0
-394 -399 0
-395 -400 0
-386 -401 0
-387 -402 0
-388 -403 0
-389 -404 0
-390 -405 0
-386 -396 0
-387 -397 0
-388 -398 0
-389 -399 0
-390 -400 0
-381 -396 0
-382 -397 0
-383 -398 0
-384 -399 0
-385 -400 0
-376 -396 0
-377 -397 0
-378 -398 0
-379 -399 0
-380 -400 0
-376 -391 0
-377 -392 0
-378 -393 0
-379 -394 0
-380 -395 0
-371 -391 0
-372 -392 0
-373 -393 0
-374 -394 0
-375 -395 0
-371 -386 0
-372 -387 0
-373 -388 0
-374 -389 0
-375 -390 0
-366 -371 0
-367 -372 0
-368 -373 0
-369 -374 0
-370 -375 0
-361 -371 0
-362 -372 0
-363 -373 0
-364 -374 0
-365 -375 0
-361 -366 0
-362 -367 0
-363 -368 0
-364 -369 0
-365 -370 0
-346 -366 0
-347 -367 0
-348 -368 0
-349 -369 0
-350 -370 0
-346 -351 0
-347 -352 0
-348 -353 0
-349 -354 0
-350 -355 0
-341 -351 0
-342 -352 0
-343 -353 0
-344 -354 0
-345 -355 0
-341 -346 0
-342 -347 0
-343 -348 0
-344 -349 0
-345 -350 0
-336 -356 0
-337 -357 0
-338 -358 0
-339 -359 0
-340 -360 0
-336 -351 0
-337 -352 0
-338 -353 0
-339 -354 0
-340 -355 0
-336 -346 0
-337 -347 0
-338 -348 0
-339 -349 0
-340 -350 0
-331 -346 0
-332 -347 0
-333 -348 0
-334 -349 0
-335 -350 0
-331 -341 0
-332 -342 0
-333 -343 0
-334 -344 0
-335 -345 0
-321 -341 0
-322 -342 0
-323 -343 0
-324 -344 0
-325 -345 0
-316 -336 0
-317 -337 0
-318 -338 0
-319 -339 0
-320 -340 0
-311 -326 0
-312 -327 0
-313 -328 0
-314 -329 0
-315 -330 0
-306 -321 0
-307 -322 0
-308 -323 0
-309 -324 0
-310 -325 0
-301 -311 0
-302 -312 0
-303 -313 0
-304 -314 0
-305 -315 0
-296 -311 0
-297 -312 0
-298 -313 0
-299 -314 0
-300 -315 0
-296 -306 0
-297 -307 0
-298 -308 0
-299 -309 0
-300 -310 0
-291 -306 0
-292 -307 0
-293 -308 0
-294 -309 0
-295 -310 0
-291 -301 0
-292 -302 0
-293 -303 0
-294 -304 0
-295 -305 0
-291 -296 0
-292 -297 0
-293 -298 0
-294 -299 0
-295 -300 0
-286 -301 0
-287 -302 0
-288 -303 0
-289 -304 0
-290 -305 0
-281 -301 0
-282 -302 0
-283 -303 0
-284 -304 0
-285 -305 0
-281 -296 0
-282 -297 0
-283 -298 0
-284 -299 0
-285 -300 0
-281 -286 0
-282 -287 0
-283 -288 0
-284 -289 0
-285 -290 0
-276 -296 0
-277 -297 0
-278 -298 0
-279 -299 0
-280 -300 0
-276 -281 0
-277 -282 0
-278 -283 0
-279 -284 0
-280 -285 0
-271 -291 0
-272 -292 0
-273 -293 0
-274 -294 0
-275 -295 0
-271 -281 0
-272 -282 0
-273 -283 0
-274 -284 0
-275 -285 0
-266 -286 0
-267 -287 0
-268 -288 0
-269 -289 0
-270 -290 0
-266 -281 0
-267 -282 0
-268 -283 0
-269 -284 0
-270 -285 0
-261 -281 0
-262 -282 0
-263 -283 0
-264 -284 0
-265 -285 0
-256 -276 0
-257 -277 0
-258 -278 0
-259 -279 0
-260 -280 0
-256 -266 0
-257 -267 0
-258 -268 0
-259 -269 0
-260 -270 0
-256 -261 0
-257 -262 0
-258 -263 0
-259 -264 0
-260 -265 0
-246 -266 0
-247 -267 0
-248 -268 0
-249 -269 0
-250 -270 0
-246 -256 0
-247 -257 0
-248 -258 0
-249 -259 0
-250 -260 0
-241 -246 0
-242 -247 0
-243 -248 0
-244 -249 0
-245 -250 0
-236 -251 0
-237 -252 0
-238 -253 0
-239 -254 0
-240 -255 0
-236 -241 0
-237 -242 0
-238 -243 0
-239 -244 0
-240 -245 0
-231 -251 0
-232 -252 0
-233 -253 0
-234 -254 0
-235 -255 0
-226 -241 0
-227 -242 0
-228 -243 0
-229 -244 0
-230 -245 0
-226 -231 0
-227 -232 0
-228 -233 0
-229 -234 0
-230 -235 0
-221 -231 0
-222 -232 0
-223 -233 0
-224 -234 0
-225 -235 0
-216 -231 0
-217 -232 0
-218 -233 0
-219 -234 0
-220 -235 0
-216 -226 0
-217 -227 0
-218 -228 0
-219 -229 0
-220 -230 0
-216 -221 0
-217 -222 0
-218 -223 0
-219 -224 0
-220 -225 0
-211 -226 0
-212 -227 0
-213 -228 0
-214 -229 0
-215 -230 0
-206 -226 0
-207 -227 0
-208 -228 0
-209 -229 0
-210 -230 0
-206 -221 0
-207 -222 0
-208 -223 0
-209 -224 0
-210 -225 0
-206 -216 0
-207 -217 0
-208 -218 0
-209 -219 0
-210 -220 0
-201 -221 0
-202 -222 0
-203 -223 0
-204 -224 0
-205 -225 0
-201 -211 0
-202 -212 0
-203 -213 0
-204 -214 0
-205 -215 0
-196 -216 0
-197 -217 0
-198 -218 0
-199 -219 0
-200 -220 0
-196 -211 0
-197 -212 0
-198 -213 0
-199 -214 0
-200 -215 0
-196 -201 0
-197 -202 0
-198 -203 0
-199 -204 0
-200 -205 0
-191 -201 0
-192 -202 0
-193 -203 0
-194 -204 0
-195 -205 0
-186 -196 0
-187 -197 0
-188 -198 0
-189 -199 0
-190 -200 0
-181 -191 0
-182 -192 0
-183 -193 0
-184 -194 0
-185 -195 0
-171 -186 0
-172 -187 0
-173 -188 0
-174 -189 0
-175 -190 0
-171 -181 0
-172 -182 0
-173 -183 0
-174 -184 0
-175 -185 0
-171 -176 0
-172 -177 0
-173 -178 0
-174 -179 0
-175 -180 0
-166 -181 0
-167 -182 0
-168 -183 0
-169 -184 0
-170 -185 0
-166 -171 0
-167 -172 0
-168 -173 0
-169 -174 0
-170 -175 0
-161 -176 0
-162 -177 0
-163 -178 0
-164 -179 0
-165 -180 0
-161 -171 0
-162 -172 0
-163 -173 0
-164 -174 0
-165 -175 0
-146 -156 0
-147 -157 0
-148 -158 0
-149 -159 0
-150 -160 0
-141 -151 0
-142 -152 0
-143 -153 0
-144 -154 0
-145 -155 0
-141 -146 0
-142 -147 0
-143 -148 0
-144 -149 0
-145 -150 0
-136 -156 0
-137 -157 0
-138 -158 0
-139 -159 0
-140 -160 0
-136 -151 0
-137 -152 0
-138 -153 0
-139 -154 0
-140 -155 0
-136 -146 0
-137 -147 0
-138 -148 0
-139 -149 0
-140 -150 0
-136 -141 0
-137 -142 0
-138 -143 0
-139 -144 0
-140 -145 0
-131 -151 0
-132 -152 0
-133 -153 0
-134 -154 0
-135 -155 0
-131 -146 0
-132 -147 0
-133 -148 0
-134 -149 0
-135 -150 0
-131 -141 0
-132 -142 0
-133 -143 0
-134 -144 0
-135 -145 0
-126 -146 0
-127 -147 0
-128 -148 0
-129 -149 0
-130 -150 0
-126 -136 0
-127 -137 0
-128 -138 0
-129 -139 0
-130 -140 0
-126 -131 0
-127 -132 0
-128 -133 0
-129 -134 0
-130 -135 0
-121 -136 0
-122 -137 0
-123 -138 0
-124 -139 0
-125 -140 0
-116 -136 0
-117 -137 0
-118 -138 0
-119 -139 0
-120 -140 0
-111 -131 0
-112 -132 0
-113 -133 0
-114 -134 0
-115 -135 0
-111 -121 0
-112 -122 0
-113 -123 0
-114 -124 0
-115 -125 0
-111 -116 0
-112 -117 0
-113 -118 0
-114 -119 0
-115 -120 0
-106 -111 0
-107 -112 0
-108 -113 0
-109 -114 0
-110 -115 0
-101 -121 0
-102 -122 0
-103 -123 0
-104 -124 0
-105 -125 0
-101 -111 0
-102 -112 0
-103 -113 0
-104 -114 0
-105 -115 0
-96 -106 0
-97 -107 0
-98 -108 0
-99 -109 0
-100 -110 0
-91 -101 0
-92 -102 0
-93 -103 0
-94 -104 0
-95 -105 0
-86 -106 0
-87 -107 0
-88 -108 0
-89 -109 0
-90 -110 0
-86 -101 0
-87 -102 0
-88 -103 0
-89 -104 0
-90 -105 0
-81 -101 0
-82 -102 0
-83 -103 0
-84 -104 0
-85 -105 0
-81 -91 0
-82 -92 0
-83 -93 0
-84 -94 0
-85 -95 0
-76 -86 0
-77 -87 0
-78 -88 0
-79 -89 0
-80 -90 0
-76 -81 0
-77 -82 0
-78 -83 0
-79 -84 0
-80 -85 0
-71 -81 0
-72 -82 0
-73 -83 0
-74 -84 0
-75 -85 0
-71 -76 0
-72 -77 0
-73 -78 0
-74 -79 0
-75 -80 0
-66 -86 0
-67 -87 0
-68 -88 0
-69 -89 0
-70 -90 0
-66 -81 0
-67 -82 0
-68 -83 0
-69 -84 0
-70 -85 0
-66 -76 0
-67 -77 0
-68 -78 0
-69 -79 0
-70 -80 0
-66 -71 0
-67 -72 0
-68 -73 0
-69 -74 0
-70 -75 0
-61 -81 0
-62 -82 0
-63 -83 0
-64 -84 0
-65 -85 0
-61 -76 0
-62 -77 0
-63 -78 0
-64 -79 0
-65 -80 0
-61 -66 0
-62 -67 0
-63 -68 0
-64 -69 0
-65 -70 0
-56 -71 0
-57 -72 0
-58 -73 0
-59 -74 0
-60 -75 0
-56 -66 0
-57 -67 0
-58 -68 0
-59 -69 0
-60 -70 0
-56 -61 0
-57 -62 0
-58 -63 0
-59 -64 0
-60 -65 0
-41 -51 0
-42 -52 0
-43 -53 0
-44 -54 0
-45 -55 0
-36 -46 0
-37 -47 0
-38 -48 0
-39 -49 0
-40 -50 0
-36 -41 0
-37 -42 0
-38 -43 0
-39 -44 0
-40 -45 0
-31 -51 0
-32 -52 0
-33 -53 0
-34 -54 0
-35 -55 0
-31 -46 0
-32 -47 0
-33 -48 0
-34 -49 0
-35 -50 0
-31 -41 0
-32 -42 0
-33 -43 0
-34 -44 0
-35 -45 0
-26 -46 0
-27 -47 0
-28 -48 0
-29 -49 0
-30 -50 0
-26 -41 0
-27 -42 0
-28 -43 0
-29 -44 0
-30 -45 0
-26 -36 0
-27 -37 0
-28 -38 0
-29 -39 0
-30 -40 0
-26 -31 0
-27 -32 0
-28 -33 0
-29 -34 0
-30 -35 0
-21 -26 0
-22 -27 0
-23 -28 0
-24 -29 0
-25 -30 0
-16 -36 0
-17 -37 0
-18 -38 0
-19 -39 0
-20 -40 0
-16 -26 0
-17 -27 0
-18 -28 0
-19 -29 0
-20 -30 0
-16 -21 0
-17 -22 0
-18 -23 0
-19 -24 0
-20 -25 0
-11 -31 0
-12 -32 0
-13 -33 0
-14 -34 0
-15 -35 0
-11 -26 0
-12 -27 0
-13 -28 0
-14 -29 0
-15 -30 0
-11 -21 0
-12 -22 0
-13 -23 0
-14 -24 0
-15 -25 0
-6 -26 0
-7 -27 0
-8 -28 0
-9 -29 0
-10 -30 0
-6 -16 0
-7 -17 0
-8 -18 0
-9 -19 0
-10 -20 0
-1 -16 0
-2 -17 0
-3 -18 0
-4 -19 0
-5 -20 0
-1 -11 0
-2 -12 0
-3 -13 0
-4 -14 0
-5 -15 0
-1 -6 0
-2 -7 0
-3 -8 0
-4 -9 0
-5 -10 0
-216 -296 0
-217 -297 0
-218 -298 0
-219 -299 0
-220 -300 0
-136 -496 0
-137 -497 0
-138 -498 0
-139 -499 0
-140 -500 0
-21 -186 0
-22 -187 0
-23 -188 0
-24 -189 0
-25 -190 0
-41 -161 0
-42 -162 0
-43 -163 0
-44 -164 0
-45 -165 0
-206 -391 0
-207 -392 0
-208 -393 0
-209 -394 0
-210 -395 0
-116 -356 0
-117 -357 0
-118 -358 0
-119 -359 0
-120 -360 0
-186 -406 0
-187 -407 0
-188 -408 0
-189 -409 0
-190 -410 0
-176 -486 0
-177 -487 0
-178 -488 0
-179 -489 0
-180 -490 0
-66 -316 0
-67 -317 0
-68 -318 0
-69 -319 0
-70 -320 0
-16 -426 0
-17 -427 0
-18 -428 0
-19 -429 0
-20 -430 0
-1 -301 0
-2 -302 0
-3 -303 0
-4 -304 0
-5 -305 0
-131 -201 0
-132 -202 0
-133 -203 0
-134 -204 0
-135 -205 0
-16 -71 0
-17 -72 0
-18 -73 0
-19 -74 0
-20 -75 0
-191 -451 0
-192 -452 0
-193 -453 0
-194 -454 0
-195 -455 0
-76 -326 0
-77 -327 0
-78 -328 0
-79 -329 0
-80 -330 0
-431 -491 0
-432 -492 0
-433 -493 0
-434 -494 0
-435 -495 0
-211 -481 0
-212 -482 0
-213 -483 0
-214 -484 0
-215 -485 0
-6 -361 0
-7 -362 0
-8 -363 0
-9 -364 0
-10 -365 0
-191 -336 0
-192 -337 0
-193 -338 0
-194 -339 0
-195 -340 0
-276 -351 0
-277 -352 0
-278 -353 0
-279 -354 0
-280 -355 0
-66 -466 0
-67 -467 0
-68 -468 0
-69 -469 0
-70 -470 0
-186 -451 0
-187 -452 0
-188 -453 0
-189 -454 0
-190 -455 0
-171 -436 0
-172 -437 0
-173 -438 0
-174 -439 0
-175 -440 0
-86 -286 0
-87 -287 0
-88 -288 0
-89 -289 0
-90 -290 0
-86 -121 0
-87 -122 0
-88 -123 0
-89 -124 0
-90 -125 0
-271 -321 0
-272 -322 0
-273 -323 0
-274 -324 0
-275 -325 0
-156 -356 0
-157 -357 0
-158 -358 0
-159 -359 0
-160 -360 0
-146 -451 0
-147 -452 0
-148 -453 0
-149 -454 0
-150 -455 0
-96 -416 0
-97 -417 0
-98 -418 0
-99 -419 0
-100 -420 0
-1 -96 0
-2 -97 0
-3 -98 0
-4 -99 0
-5 -100 0
-11 -461 0
-12 -462 0
-13 -463 0
-14 -464 0
-15 -465 0
-226 -331 0
-227 -332 0
-228 -333 0
-229 -334 0
-230 -335 0
-336 -456 0
-337 -457 0
-338 -458 0
-339 -459 0
-340 -460 0
-6 -86 0
-7 -87 0
-8 -88 0
-9 -89 0
-10 -90 0
-36 -106 0
-37 -107 0
-38 -108 0
-39 -109 0
-40 -110 0
-86 -486 0
-87 -487 0
-88 -488 0
-89 -489 0
-90 -490 0
-6 -326 0
-7 -327 0
-8 -328 0
-9 -329 0
-10 -330 0
-201 -336 0
-202 -337 0
-203 -338 0
-204 -339 0
-205 -340 0
-111 -356 0
-112 -357 0
-113 -358 0
-114 -359 0
-115 -360 0
-171 -266 0
-172 -267 0
-173 -268 0
-174 -269 0
-175 -270 0
-51 -476 0
-52 -477 0
-53 -478 0
-54 -479 0
-55 -480 0
-31 -251 0
-32 -252 0
-33 -253 0
-34 -254 0
-35 -255 0
-16 -471 0
-17 -472 0
-18 -473 0
-19 -474 0
-20 -475 0
-81 -256 0
-82 -257 0
-83 -258 0
-84 -259 0
-85 -260 0
-296 -436 0
-297 -437 0
-298 -438 0
-299 -439 0
-300 -440 0
-26 -251 0
-27 -252 0
-28 -253 0
-29 -254 0
-30 -255 0
-31 -106 0
-32 -107 0
-33 -108 0
-34 -109 0
-35 -110 0
-1 -126 0
-2 -127 0
-3 -128 0
-4 -129 0
-5 -130 0
-286 -496 0
-287 -497 0
-288 -498 0
-289 -499 0
-290 -500 0
-186 -401 0
-187 -402 0
-188 -403 0
-189 -404 0
-190 -405 0
-31 -86 0
-32 -87 0
-33 -88 0
-34 -89 0
-35 -90 0
-56 -376 0
-57 -377 0
-58 -378 0
-59 -379 0
-60 -380 0
-231 -296 0
-232 -297 0
-233 -298 0
-234 -299 0
-235 -300 0
-301 -391 0
-302 -392 0
-303 -393 0
-304 -394 0
-305 -395 0
-96 -381 0
-97 -382 0
-98 -383 0
-99 -384 0
-100 -385 0
-196 -256 0
-197 -257 0
-198 -258 0
-199 -259 0
-200 -260 0
-141 -246 0
-142 -247 0
-143 -248 0
-144 -249 0
-145 -250 0
-1 -156 0
-2 -157 0
-3 -158 0
-4 -159 0
-5 -160 0
-176 -356 0
-177 -357 0
-178 -358 0
-179 -359 0
-180 -360 0
-66 -131 0
-67 -132 0
-68 -133 0
-69 -134 0
-70 -135 0
-136 -456 0
-137 -457 0
-138 -458 0
-139 -459 0
-140 -460 0
-1 -386 0
-2 -387 0
-3 -388 0
-4 -389 0
-5 -390 0
-81 -331 0
-82 -332 0
-83 -333 0
-84 -334 0
-85 -335 0
-131 -211 0
-132 -212 0
-133 -213 0
-134 -214 0
-135 -215 0
-81 -366 0
-82 -367 0
-83 -368 0
-84 -369 0
-85 -370 0
-111 -156 0
-112 -157 0
-113 -158 0
-114 -159 0
-115 -160 0
-181 -216 0
-182 -217 0
-183 -218 0
-184 -219 0
-185 -220 0
-36 -461 0
-37 -462 0
-38 -463 0
-39 -464 0
-40 -465 0
-386 -461 0
-387 -462 0
-388 -463 0
-389 -464 0
-390 -465 0
-171 -256 0
-172 -257 0
-173 -258 0
-174 -259 0
-175 -260 0
-136 -276 0
-137 -277 0
-138 -278 0
-139 -279 0
-140 -280 0
-171 -481 0
-172 -482 0
-173 -483 0
-174 -484 0
-175 -485 0
-186 -351 0
-187 -352 0
-188 -353 0
-189 -354 0
-190 -355 0
-1 -31 0
-2 -32 0
-3 -33 0
-4 -34 0
-5 -35 0
-6 -341 0
-7 -342 0
-8 -343 0
-9 -344 0
-10 -345 0
-111 -431 0
-112 -432 0
-113 -433 0
-114 -434 0
-115 -435 0
-146 -391 0
-147 -392 0
-148 -393 0
-149 -394 0
-150 -395 0
-61 -231 0
-62 -232 0
-63 -233 0
-64 -234 0
-65 -235 0
-326 -411 0
-327 -412 0
-328 -413 0
-329 -414 0
-330 -415 0
-126 -256 0
-127 -257 0
-128 -258 0
-129 -259 0
-130 -260 0
-41 -151 0
-42 -152 0
-43 -153 0
-44 -154 0
-45 -155 0
-86 -126 0
-87 -127 0
-88 -128 0
-89 -129 0
-90 -130 0
-116 -326 0
-117 -327 0
-118 -328 0
-119 -329 0
-120 -330 0
-6 -246 0
-7 -247 0
-8 -248 0
-9 -249 0
-10 -250 0
-31 -346 0
-32 -347 0
-33 -348 0
-34 -349 0
-35 -350 0
-56 -136 0
-57 -137 0
-58 -138 0
-59 -139 0
-60 -140 0
-356 -411 0
-357 -412 0
-358 -413 0
-359 -414 0
-360 -415 0
-181 -381 0
-182 -382 0
-183 -383 0
-184 -384 0
-185 -385 0
-56 -146 0
-57 -147 0
-58 -148 0
-59 -149 0
-60 -150 0
-36 -401 0
-37 -402 0
-38 -403 0
-39 -404 0
-40 -405 0
-166 -496 0
-167 -497 0
-168 -498 0
-169 -499 0
-170 -500 0
-16 -276 0
-17 -277 0
-18 -278 0
-19 -279 0
-20 -280 0
-341 -391 0
-342 -392 0
-343 -393 0
-344 -394 0
-345 -395 0
-51 -321 0
-52 -322 0
-53 -323 0
-54 -324 0
-55 -325 0
-266 -351 0
-267 -352 0
-268 -353 0
-269 -354 0
-270 -355 0
-241 -416 0
-242 -417 0
-243 -418 0
-244 -419 0
-245 -420 0
-361 -456 0
-362 -457 0
-363 -458 0
-364 -459 0
-365 -460 0
-71 -436 0
-72 -437 0
-73 -438 0
-74 -439 0
-75 -440 0
-106 -421 0
-107 -422 0
-108 -423 0
-109 -424 0
-110 -425 0
-136 -416 0
-137 -417 0
-138 -418 0
-139 -419 0
-140 -420 0
-106 -481 0
-107 -482 0
-108 -483 0
-109 -484 0
-110 -485 0
-21 -256 0
-22 -257 0
-23 -258 0
-24 -259 0
-25 -260 0
-76 -391 0
-77 -392 0
-78 -393 0
-79 -394 0
-80 -395 0
-346 -446 0
-347 -447 0
-348 -448 0
-349 -449 0
-350 -450 0
-186 -346 0
-187 -347 0
-188 -348 0
-189 -349 0
-190 -350 0
-131 -486 0
-132 -487 0
-133 -488 0
-134 -489 0
-135 -490 0
-181 -451 0
-182 -452 0
-183 -453 0
-184 -454 0
-185 -455 0
-166 -216 0
-167 -217 0
-168 -218 0
-169 -219 0
-170 -220 0
-291 -481 0
-292 -482 0
-293 -483 0
-294 -484 0
-295 -485 0
-361 -461 0
-362 -462 0
-363 -463 0
-364 -464 0
-365 -465 0
-46 -456 0
-47 -457 0
-48 -458 0
-49 -459 0
-50 -460 0
-286 -441 0
-287 -442 0
-288 -443 0
-289 -444 0
-290 -445 0
-176 -301 0
-177 -302 0
-178 -303 0
-179 -304 0
-180 -305 0
-81 -206 0
-82 -207 0
-83 -208 0
-84 -209 0
-85 -210 0
-211 -376 0
-212 -377 0
-213 -378 0
-214 -379 0
-215 -380 0
-116 -186 0
-117 -187 0
-118 -188 0
-119 -189 0
-120 -190 0
-11 -161 0
-12 -162 0
-13 -163 0
-14 -164 0
-15 -165 0
-86 -256 0
-87 -257 0
-88 -258 0
-89 -259 0
-90 -260 0
-141 -401 0
-142 -402 0
-143 -403 0
-144 -404 0
-145 -405 0
-416 -476 0
-417 -477 0
-418 -478 0
-419 -479 0
-420 -480 0
-261 -451 0
-262 -452 0
-263 -453 0
-264 -454 0
-265 -455 0
-226 -481 0
-227 -482 0
-228 -483 0
-229 -484 0
-230 -485 0
-121 -351 0
-122 -352 0
-123 -353 0
-124 -354 0
-125 -355 0
-196 -321 0
-197 -322 0
-198 -323 0
-199 -324 0
-200 -325 0
-21 -221 0
-22 -222 0
-23 -223 0
-24 -224 0
-25 -225 0
-321 -441 0
-322 -442 0
-323 -443 0
-324 -444 0
-325 -445 0
-121 -296 0
-122 -297 0
-123 -298 0
-124 -299 0
-125 -300 0
-326 -451 0
-327 -452 0
-328 -453 0
-329 -454 0
-330 -455 0
-181 -306 0
-182 -307 0
-183 -308 0
-184 -309 0
-185 -310 0
-176 -331 0
-177 -332 0
-178 -333 0
-179 -334 0
-180 -335 0
-151 -481 0
-152 -482 0
-153 -483 0
-154 -484 0
-155 -485 0
-46 -141 0
-47 -142 0
-48 -143 0
-49 -144 0
-50 -145 0
-41 -226 0
-42 -227 0
-43 -228 0
-44 -229 0
-45 -230 0
-151 -251 0
-152 -252 0
-153 -253 0
-154 -254 0
-155 -255 0
-201 -251 0
-202 -252 0
-203 -253 0
-204 -254 0
-205 -255 0
-191 -316 0
-192 -317 0
-193 -318 0
-194 -319 0
-195 -320 0
-191 -321 0
-192 -322 0
-193 -323 0
-194 -324 0
-195 -325 0
-86 -341 0
-87 -342 0
-88 -343 0
-89 -344 0
-90 -345 0
-51 -461 0
-52 -462 0
-53 -463 0
-54 -464 0
-55 -465 0
-211 -236 0
-212 -237 0
-213 -238 0
-214 -239 0
-215 -240 0
-261 -441 0
-262 -442 0
-263 -443 0
-264 -444 0
-265 -445 0
-86 -461 0
-87 -462 0
-88 -463 0
-89 -464 0
-90 -465 0
-306 -336 0
-307 -337 0
-308 -338 0
-309 -339 0
-310 -340 0
-76 -191 0
-77 -192 0
-78 -193 0
-79 -194 0
-80 -195 0
-151 -221 0
-152 -222 0
-153 -223 0
-154 -224 0
-155 -225 0
-301 -366 0
-302 -367 0
-303 -368 0
-304 -369 0
-305 -370 0
-186 -496 0
-187 -497 0
-188 -498 0
-189 -499 0
-190 -500 0
-381 -466 0
-382 -467 0
-383 -468 0
-384 -469 0
-385 -470 0
-131 -371 0
-132 -372 0
-133 -373 0
-134 -374 0
-135 -375 0
-71 -146 0
-72 -147 0
-73 -148 0
-74 -149 0
-75 -150 0
-171 -471 0
-172 -472 0
-173 -473 0
-174 -474 0
-175 -475 0
-71 -256 0
-72 -257 0
-73 -258 0
-74 -259 0
-75 -260 0
-151 -241 0
-152 -242 0
-153 -243 0
-154 -244 0
-155 -245 0
-51 -181 0
-52 -182 0
-53 -183 0
-54 -184 0
-55 -185 0
-46 -286 0
-47 -287 0
-48 -288 0
-49 -289 0
-50 -290 0
-196 -436 0
-197 -437 0
-198 -438 0
-199 -439 0
-200 -440 0
-66 -141 0
-67 -142 0
-68 -143 0
-69 -144 0
-70 -145 0
-46 -191 0
-47 -192 0
-48 -193 0
-49 -194 0
-50 -195 0
-176 -476 0
-177 -477 0
-178 -478 0
-179 -479 0
-180 -480 0
-66 -216 0
-67 -217 0
-68 -218 0
-69 -219 0
-70 -220 0
-91 -466 0
-92 -467 0
-93 -468 0
-94 -469 0
-95 -470 0
-156 -496 0
-157 -497 0
-158 -498 0
-159 -499 0
-160 -500 0
-336 -466 0
-337 -467 0
-338 -468 0
-339 -469 0
-340 -470 0
-96 -331 0
-97 -332 0
-98 -333 0
-99 -334 0
-100 -335 0
-101 -146 0
-102 -147 0
-103 -148 0
-104 -149 0
-105 -150 0
-6 -176 0
-7 -177 0
-8 -178 0
-9 -179 0
-10 -180 0
-281 -321 0
-282 -322 0
-283 -323 0
-284 -324 0
-285 -325 0
-51 -486 0
-52 -487 0
-53 -488 0
-54 -489 0
-55 -490 0
-36 -381 0
-37 -382 0
-38 -383 0
-39 -384 0
-40 -385 0
-176 -201 0
-177 -202 0
-178 -203 0
-179 -204 0
-180 -205 0
-91 -436 0
-92 -437 0
-93 -438 0
-94 -439 0
-95 -440 0
-366 -401 0
-367 -402 0
-368 -403 0
-369 -404 0
-370 -405 0
-316 -351 0
-317 -352 0
-318 -353 0
-319 -354 0
-320 -355 0
-136 -256 0
-137 -257 0
-138 -258 0
-139 -259 0
-140 -260 0
-186 -436 0
-187 -437 0
-188 -438 0
-189 -439 0
-190 -440 0
-46 -211 0
-47 -212 0
-48 -213 0
-49 -214 0
-50 -215 0
-26 -496 0
-27 -497 0
-28 -498 0
-29 -499 0
-30 -500 0
-61 -276 0
-62 -277 0
-63 -278 0
-64 -279 0
-65 -280 0
-296 -481 0
-297 -482 0
-298 -483 0
-299 -484 0
-300 -485 0
